60

 0   2   3   3   4   4   5   5   5   5   6   2   3   4   4   4   5   5   5   7   7   7   3   3   4   4   4   6   7   4   4   7   7   4   5   5   5   6   6   8   9  10   5   5   7   8   8   9   9  10  11  11  11   6   8   9  10  10  11  12  
 2   0   1   1   2   2   3   3   3   3   4   2   1   2   2   2   3   3   3   5   5   5   3   3   2   2   2   4   5   4   4   5   5   6   5   5   5   4   4   6   7   8   7   7   5   6   6   7   7   8   9   9   9   8   6   7   8   8   9  10  
 3   1   0   0   1   1   2   2   2   2   3   3   2   1   1   1   2   2   2   4   4   4   4   4   3   3   3   3   4   5   5   4   4   7   6   6   6   5   5   5   6   7   8   8   6   5   5   6   6   7   8   8   8   9   7   6   7   7   8   9  
 3   1   0   0   1   1   2   2   2   2   3   3   2   1   1   1   2   2   2   4   4   4   4   4   3   3   3   3   4   5   5   4   4   7   6   6   6   5   5   5   6   7   8   8   6   5   5   6   6   7   8   8   8   9   7   6   7   7   8   9  
 4   2   1   1   0   0   1   1   1   1   2   4   3   2   2   2   1   1   1   3   3   3   5   5   4   4   4   2   3   6   6   3   3   8   7   7   7   6   6   4   5   6   9   9   7   6   6   5   5   6   7   7   7  10   8   7   6   6   7   8  
 4   2   1   1   0   0   1   1   1   1   2   4   3   2   2   2   1   1   1   3   3   3   5   5   4   4   4   2   3   6   6   3   3   8   7   7   7   6   6   4   5   6   9   9   7   6   6   5   5   6   7   7   7  10   8   7   6   6   7   8  
 5   3   2   2   1   1   0   0   0   0   1   5   4   3   3   3   2   2   2   2   2   2   6   6   5   5   5   3   2   7   7   4   4   9   8   8   8   7   7   5   4   5  10  10   8   7   7   6   6   5   6   6   6  11   9   8   7   7   6   7  
 5   3   2   2   1   1   0   0   0   0   1   5   4   3   3   3   2   2   2   2   2   2   6   6   5   5   5   3   2   7   7   4   4   9   8   8   8   7   7   5   4   5  10  10   8   7   7   6   6   5   6   6   6  11   9   8   7   7   6   7  
 5   3   2   2   1   1   0   0   0   0   1   5   4   3   3   3   2   2   2   2   2   2   6   6   5   5   5   3   2   7   7   4   4   9   8   8   8   7   7   5   4   5  10  10   8   7   7   6   6   5   6   6   6  11   9   8   7   7   6   7  
 5   3   2   2   1   1   0   0   0   0   1   5   4   3   3   3   2   2   2   2   2   2   6   6   5   5   5   3   2   7   7   4   4   9   8   8   8   7   7   5   4   5  10  10   8   7   7   6   6   5   6   6   6  11   9   8   7   7   6   7  
 6   4   3   3   2   2   1   1   1   1   0   6   5   4   4   4   3   3   3   1   1   1   7   7   6   6   6   4   3   8   8   5   5  10   9   9   9   8   8   6   5   4  11  11   9   8   8   7   7   6   5   5   5  12  10   9   8   8   7   6  
 2   2   3   3   4   4   5   5   5   5   6   0   1   2   2   2   3   3   3   5   5   5   1   1   2   2   2   4   5   2   2   5   5   4   3   3   3   4   4   6   7   8   5   5   5   6   6   7   7   8   9   9   9   6   6   7   8   8   9  10  
 3   1   2   2   3   3   4   4   4   4   5   1   0   1   1   1   2   2   2   4   4   4   2   2   1   1   1   3   4   3   3   4   4   5   4   4   4   3   3   5   6   7   6   6   4   5   5   6   6   7   8   8   8   7   5   6   7   7   8   9  
 4   2   1   1   2   2   3   3   3   3   4   2   1   0   0   0   1   1   1   3   3   3   3   3   2   2   2   2   3   4   4   3   3   6   5   5   5   4   4   4   5   6   7   7   5   4   4   5   5   6   7   7   7   8   6   5   6   6   7   8  
 4   2   1   1   2   2   3   3   3   3   4   2   1   0   0   0   1   1   1   3   3   3   3   3   2   2   2   2   3   4   4   3   3   6   5   5   5   4   4   4   5   6   7   7   5   4   4   5   5   6   7   7   7   8   6   5   6   6   7   8  
 4   2   1   1   2   2   3   3   3   3   4   2   1   0   0   0   1   1   1   3   3   3   3   3   2   2   2   2   3   4   4   3   3   6   5   5   5   4   4   4   5   6   7   7   5   4   4   5   5   6   7   7   7   8   6   5   6   6   7   8  
 5   3   2   2   1   1   2   2   2   2   3   3   2   1   1   1   0   0   0   2   2   2   4   4   3   3   3   1   2   5   5   2   2   7   6   6   6   5   5   3   4   5   8   8   6   5   5   4   4   5   6   6   6   9   7   6   5   5   6   7  
 5   3   2   2   1   1   2   2   2   2   3   3   2   1   1   1   0   0   0   2   2   2   4   4   3   3   3   1   2   5   5   2   2   7   6   6   6   5   5   3   4   5   8   8   6   5   5   4   4   5   6   6   6   9   7   6   5   5   6   7  
 5   3   2   2   1   1   2   2   2   2   3   3   2   1   1   1   0   0   0   2   2   2   4   4   3   3   3   1   2   5   5   2   2   7   6   6   6   5   5   3   4   5   8   8   6   5   5   4   4   5   6   6   6   9   7   6   5   5   6   7  
 7   5   4   4   3   3   2   2   2   2   1   5   4   3   3   3   2   2   2   0   0   0   6   6   5   5   5   3   2   7   7   4   4   9   8   8   8   7   7   5   4   3  10  10   8   7   7   6   6   5   4   4   4  11   9   8   7   7   6   5  
 7   5   4   4   3   3   2   2   2   2   1   5   4   3   3   3   2   2   2   0   0   0   6   6   5   5   5   3   2   7   7   4   4   9   8   8   8   7   7   5   4   3  10  10   8   7   7   6   6   5   4   4   4  11   9   8   7   7   6   5  
 7   5   4   4   3   3   2   2   2   2   1   5   4   3   3   3   2   2   2   0   0   0   6   6   5   5   5   3   2   7   7   4   4   9   8   8   8   7   7   5   4   3  10  10   8   7   7   6   6   5   4   4   4  11   9   8   7   7   6   5  
 3   3   4   4   5   5   6   6   6   6   7   1   2   3   3   3   4   4   4   6   6   6   0   0   1   1   1   3   4   1   1   4   4   3   2   2   2   3   3   5   6   7   4   4   4   5   5   6   6   7   8   8   8   5   5   6   7   7   8   9  
 3   3   4   4   5   5   6   6   6   6   7   1   2   3   3   3   4   4   4   6   6   6   0   0   1   1   1   3   4   1   1   4   4   3   2   2   2   3   3   5   6   7   4   4   4   5   5   6   6   7   8   8   8   5   5   6   7   7   8   9  
 4   2   3   3   4   4   5   5   5   5   6   2   1   2   2   2   3   3   3   5   5   5   1   1   0   0   0   2   3   2   2   3   3   4   3   3   3   2   2   4   5   6   5   5   3   4   4   5   5   6   7   7   7   6   4   5   6   6   7   8  
 4   2   3   3   4   4   5   5   5   5   6   2   1   2   2   2   3   3   3   5   5   5   1   1   0   0   0   2   3   2   2   3   3   4   3   3   3   2   2   4   5   6   5   5   3   4   4   5   5   6   7   7   7   6   4   5   6   6   7   8  
 4   2   3   3   4   4   5   5   5   5   6   2   1   2   2   2   3   3   3   5   5   5   1   1   0   0   0   2   3   2   2   3   3   4   3   3   3   2   2   4   5   6   5   5   3   4   4   5   5   6   7   7   7   6   4   5   6   6   7   8  
 6   4   3   3   2   2   3   3   3   3   4   4   3   2   2   2   1   1   1   3   3   3   3   3   2   2   2   0   1   4   4   1   1   6   5   5   5   4   4   2   3   4   7   7   5   4   4   3   3   4   5   5   5   8   6   5   4   4   5   6  
 7   5   4   4   3   3   2   2   2   2   3   5   4   3   3   3   2   2   2   2   2   2   4   4   3   3   3   1   0   5   5   2   2   7   6   6   6   5   5   3   2   3   8   8   6   5   5   4   4   3   4   4   4   9   7   6   5   5   4   5  
 4   4   5   5   6   6   7   7   7   7   8   2   3   4   4   4   5   5   5   7   7   7   1   1   2   2   2   4   5   0   0   3   3   2   1   1   1   2   2   4   5   6   3   3   3   4   4   5   5   6   7   7   7   4   4   5   6   6   7   8  
 4   4   5   5   6   6   7   7   7   7   8   2   3   4   4   4   5   5   5   7   7   7   1   1   2   2   2   4   5   0   0   3   3   2   1   1   1   2   2   4   5   6   3   3   3   4   4   5   5   6   7   7   7   4   4   5   6   6   7   8  
 7   5   4   4   3   3   4   4   4   4   5   5   4   3   3   3   2   2   2   4   4   4   4   4   3   3   3   1   2   3   3   0   0   5   4   4   4   3   3   1   2   3   6   6   4   3   3   2   2   3   4   4   4   7   5   4   3   3   4   5  
 7   5   4   4   3   3   4   4   4   4   5   5   4   3   3   3   2   2   2   4   4   4   4   4   3   3   3   1   2   3   3   0   0   5   4   4   4   3   3   1   2   3   6   6   4   3   3   2   2   3   4   4   4   7   5   4   3   3   4   5  
 4   6   7   7   8   8   9   9   9   9  10   4   5   6   6   6   7   7   7   9   9   9   3   3   4   4   4   6   7   2   2   5   5   0   1   1   1   2   2   4   5   6   1   1   3   4   4   5   5   6   7   7   7   2   4   5   6   6   7   8  
 5   5   6   6   7   7   8   8   8   8   9   3   4   5   5   5   6   6   6   8   8   8   2   2   3   3   3   5   6   1   1   4   4   1   0   0   0   1   1   3   4   5   2   2   2   3   3   4   4   5   6   6   6   3   3   4   5   5   6   7  
 5   5   6   6   7   7   8   8   8   8   9   3   4   5   5   5   6   6   6   8   8   8   2   2   3   3   3   5   6   1   1   4   4   1   0   0   0   1   1   3   4   5   2   2   2   3   3   4   4   5   6   6   6   3   3   4   5   5   6   7  
 5   5   6   6   7   7   8   8   8   8   9   3   4   5   5   5   6   6   6   8   8   8   2   2   3   3   3   5   6   1   1   4   4   1   0   0   0   1   1   3   4   5   2   2   2   3   3   4   4   5   6   6   6   3   3   4   5   5   6   7  
 6   4   5   5   6   6   7   7   7   7   8   4   3   4   4   4   5   5   5   7   7   7   3   3   2   2   2   4   5   2   2   3   3   2   1   1   1   0   0   2   3   4   3   3   1   2   2   3   3   4   5   5   5   4   2   3   4   4   5   6  
 6   4   5   5   6   6   7   7   7   7   8   4   3   4   4   4   5   5   5   7   7   7   3   3   2   2   2   4   5   2   2   3   3   2   1   1   1   0   0   2   3   4   3   3   1   2   2   3   3   4   5   5   5   4   2   3   4   4   5   6  
 8   6   5   5   4   4   5   5   5   5   6   6   5   4   4   4   3   3   3   5   5   5   5   5   4   4   4   2   3   4   4   1   1   4   3   3   3   2   2   0   1   2   5   5   3   2   2   1   1   2   3   3   3   6   4   3   2   2   3   4  
 9   7   6   6   5   5   4   4   4   4   5   7   6   5   5   5   4   4   4   4   4   4   6   6   5   5   5   3   2   5   5   2   2   5   4   4   4   3   3   1   0   1   6   6   4   3   3   2   2   1   2   2   2   7   5   4   3   3   2   3  
10   8   7   7   6   6   5   5   5   5   4   8   7   6   6   6   5   5   5   3   3   3   7   7   6   6   6   4   3   6   6   3   3   6   5   5   5   4   4   2   1   0   7   7   5   4   4   3   3   2   1   1   1   8   6   5   4   4   3   2  
 5   7   8   8   9   9  10  10  10  10  11   5   6   7   7   7   8   8   8  10  10  10   4   4   5   5   5   7   8   3   3   6   6   1   2   2   2   3   3   5   6   7   0   0   2   3   3   4   4   5   6   6   6   1   3   4   5   5   6   7  
 5   7   8   8   9   9  10  10  10  10  11   5   6   7   7   7   8   8   8  10  10  10   4   4   5   5   5   7   8   3   3   6   6   1   2   2   2   3   3   5   6   7   0   0   2   3   3   4   4   5   6   6   6   1   3   4   5   5   6   7  
 7   5   6   6   7   7   8   8   8   8   9   5   4   5   5   5   6   6   6   8   8   8   4   4   3   3   3   5   6   3   3   4   4   3   2   2   2   1   1   3   4   5   2   2   0   1   1   2   2   3   4   4   4   3   1   2   3   3   4   5  
 8   6   5   5   6   6   7   7   7   7   8   6   5   4   4   4   5   5   5   7   7   7   5   5   4   4   4   4   5   4   4   3   3   4   3   3   3   2   2   2   3   4   3   3   1   0   0   1   1   2   3   3   3   4   2   1   2   2   3   4  
 8   6   5   5   6   6   7   7   7   7   8   6   5   4   4   4   5   5   5   7   7   7   5   5   4   4   4   4   5   4   4   3   3   4   3   3   3   2   2   2   3   4   3   3   1   0   0   1   1   2   3   3   3   4   2   1   2   2   3   4  
 9   7   6   6   5   5   6   6   6   6   7   7   6   5   5   5   4   4   4   6   6   6   6   6   5   5   5   3   4   5   5   2   2   5   4   4   4   3   3   1   2   3   4   4   2   1   1   0   0   1   2   2   2   5   3   2   1   1   2   3  
 9   7   6   6   5   5   6   6   6   6   7   7   6   5   5   5   4   4   4   6   6   6   6   6   5   5   5   3   4   5   5   2   2   5   4   4   4   3   3   1   2   3   4   4   2   1   1   0   0   1   2   2   2   5   3   2   1   1   2   3  
10   8   7   7   6   6   5   5   5   5   6   8   7   6   6   6   5   5   5   5   5   5   7   7   6   6   6   4   3   6   6   3   3   6   5   5   5   4   4   2   1   2   5   5   3   2   2   1   1   0   1   1   1   6   4   3   2   2   1   2  
11   9   8   8   7   7   6   6   6   6   5   9   8   7   7   7   6   6   6   4   4   4   8   8   7   7   7   5   4   7   7   4   4   7   6   6   6   5   5   3   2   1   6   6   4   3   3   2   2   1   0   0   0   7   5   4   3   3   2   1  
11   9   8   8   7   7   6   6   6   6   5   9   8   7   7   7   6   6   6   4   4   4   8   8   7   7   7   5   4   7   7   4   4   7   6   6   6   5   5   3   2   1   6   6   4   3   3   2   2   1   0   0   0   7   5   4   3   3   2   1  
11   9   8   8   7   7   6   6   6   6   5   9   8   7   7   7   6   6   6   4   4   4   8   8   7   7   7   5   4   7   7   4   4   7   6   6   6   5   5   3   2   1   6   6   4   3   3   2   2   1   0   0   0   7   5   4   3   3   2   1  
 6   8   9   9  10  10  11  11  11  11  12   6   7   8   8   8   9   9   9  11  11  11   5   5   6   6   6   8   9   4   4   7   7   2   3   3   3   4   4   6   7   8   1   1   3   4   4   5   5   6   7   7   7   0   2   3   4   4   5   6  
 8   6   7   7   8   8   9   9   9   9  10   6   5   6   6   6   7   7   7   9   9   9   5   5   4   4   4   6   7   4   4   5   5   4   3   3   3   2   2   4   5   6   3   3   1   2   2   3   3   4   5   5   5   2   0   1   2   2   3   4  
 9   7   6   6   7   7   8   8   8   8   9   7   6   5   5   5   6   6   6   8   8   8   6   6   5   5   5   5   6   5   5   4   4   5   4   4   4   3   3   3   4   5   4   4   2   1   1   2   2   3   4   4   4   3   1   0   1   1   2   3  
10   8   7   7   6   6   7   7   7   7   8   8   7   6   6   6   5   5   5   7   7   7   7   7   6   6   6   4   5   6   6   3   3   6   5   5   5   4   4   2   3   4   5   5   3   2   2   1   1   2   3   3   3   4   2   1   0   0   1   2  
10   8   7   7   6   6   7   7   7   7   8   8   7   6   6   6   5   5   5   7   7   7   7   7   6   6   6   4   5   6   6   3   3   6   5   5   5   4   4   2   3   4   5   5   3   2   2   1   1   2   3   3   3   4   2   1   0   0   1   2  
11   9   8   8   7   7   6   6   6   6   7   9   8   7   7   7   6   6   6   6   6   6   8   8   7   7   7   5   4   7   7   4   4   7   6   6   6   5   5   3   2   3   6   6   4   3   3   2   2   1   2   2   2   5   3   2   1   1   0   1  
12  10   9   9   8   8   7   7   7   7   6  10   9   8   8   8   7   7   7   5   5   5   9   9   8   8   8   6   5   8   8   5   5   8   7   7   7   6   6   4   3   2   7   7   5   4   4   3   3   2   1   1   1   6   4   3   2   2   1   0  

 0  12  15  31  33  24  24  24  24  27  24  18  24  24   6  24  28  17  20  42  33  17  24  34  26  24  15  28  39  15  33  15   9  24  31  24  36  15  28  33  15  24  24  33  28  20  24  39  27  15  22  20  28  35  24  33  26  24  31  24  
 0   0  15  26  28  22  26  22  24  26  15  26  31  31  17  20  20  23  30  31  33  22  24  20  33  24   4  29  33  15  33  15  15  33  37  31  48  30  12  35  26  24  28  42  18  37  11  35  24  13  30  26  24  20  15  33  18  22  35  30  
 0   0   0  33  26  14  24  22  24  38  23  30  24  22  15  24  24  24  24  22  26  33  24  24  26  19  24  34  33  24  28  15  16  24  35  23  33  15  23  33  27  31  24  19  26  19  29  16  26  41  22  28  26  33  24  16  28  17  29  22  
 0   0   0   0  38  24  34  28  24   7  15  15  33  33  33  25  24   9  24  14  23  32  23  34  34  14  15  28  25  24  11  23  36  37  16  43  23  42  24  12  24  25  24  33  24  43  25  23  15  24  23  14  25   8  15  28  22  25  22  25  
 0   0   0   0   0  33  18  22  21  20  24  32  24  17  33  28  24  38  20  27  22  20  33  14  26  34  11  35  10  24  31  46  20  20  19  18  14  24  27  28  49  26  15  24  27  14  27  24  25  26  26  34  18  24  24  20  36  15  24  22  
 0   0   0   0   0   0  26  22  22  34  24  26  24  33  24  22  24  26  24  24  24  24  15  24  26  24  33  34  24  24  24  15  24  24  24  27  19  26  24  24  15  24  35  24  10  24  15  17  24  41  24  22  24  24  24  24  29  33  24  24  
 0   0   0   0   0   0   0  26  35  24  24  27  33  24  24  22  24  32  28  34  15  37  24  14   9  34  37  20  18  24  24  34  24  24  24  12  14  22  15  24  20  20  31  15  28  14  14  26  24  22  15  36  24  24  24  24  11  33  33  24  
 0   0   0   0   0   0   0   0  22  24  24  24  24  22  20  22  24  30  28  22  30  24  24  24  28  24  20  28  24  24  28  24  20  20  30  22  24  22  22  28  24  26  22  24  26  24  20  22  26  28  22  22  30  24  28  20  28  24  24  22  
 0   0   0   0   0   0   0   0   0  26  24  35  17  26  22  24  24  22  22  26  33  17  24  24  35  24  17  29  26  24  27  27  24  24  19  24  26  26  30  22  25  24  15  33  26  26  24  20  27  26  31  22  24  26  24  24  31  17  15  22  
 0   0   0   0   0   0   0   0   0   0  15  17  31  31  35  21  24  33  26  22  25  32  25  30  34  19  13  24  21  24  10  33  28  33  18  33  15  42  28  16  21  28  26  28  22  28  24  31   9  23  23  29  19   4  15  24  33  21  29  21  
 0   0   0   0   0   0   0   0   0   0   0  24  33  33  24  24  24  24  24  24  24  34  24  24  33  24  15  33  24  24  24  24  25  33  24  32  24  33  25  24  24  24  24  33  24  33  15  24  15  24  24  23  24  15  15  24  23  25  24  24  
 0   0   0   0   0   0   0   0   0   0   0   0  33  22  24  29  24  19  20  12  18  20  25  40  19  15  29  29  36  24  24  14  19  24  27  40  34  22  13  23  20  29  31  15  22  34  34  41  20  24  12  16  25  24  24  32  19  40  33  21  
 0   0   0   0   0   0   0   0   0   0   0   0   0   5  26  22  24  26  26  22  33   6  24  32  24  24  22  15  24  24  24  24  24  15  26  15  16  15  33  26  26  24  17  24  22   7  33  24  33  24  33  24  32  31  41  24  33  13  15  26  
 0   0   0   0   0   0   0   0   0   0   0   0   0   0  26  22  24  26  26  20  26  15  33  32  17  24  22  15  24  24  24  33  24  15  28  15  16  15  22  26  35  26  17  15  33   7  42  24  35  26  22  24  34  31  41  24  24  13  24  24  
 0   0   0   0   0   0   0   0   0   0   0   0   0   0   0  26  24  22  26  35  28  24  24  24  24  24  22  24  33  24  33  15  15  24  35  24  33  11  24  31  13  24  18  24  26  24  20  24  24  24  24  24  28  35  28  24  24  26  24  22  
 0   0   0   0   0   0   0   0   0   0   0   0   0   0   0   0  24  29  30  22  25  27  25  24  23  24  26  21  28  24  24  24  25  24  27  18  24  26  24  25  22  19  28  24  26  24  24  23  24  26  23  22  23  22  24  24  20  21  24  25  
 0   0   0   0   0   0   0   0   0   0   0   0   0   0   0   0   0  28  28  24  24  20  24  20  24  24  24  20  24  24  24  24  24  24  28  24  28  24  20  24  24  24  24  24  20  28  24  24  24  24  24  28  20  24  24  24  24  24  24  24  
 0   0   0   0   0   0   0   0   0   0   0   0   0   0   0   0   0   0  18  25  32  22  23  32  21  14  17  25  30  15  20  14  33  28  17  38  41  22  28  19  22  25  20  33  30  32  34  26  39  13  23  12  29  26  24  37  18  27  33  23  
 0   0   0   0   0   0   0   0   0   0   0   0   0   0   0   0   0   0   0  26  20  24  24  28  28  24  26  32  20  24  24  24  24  24  14  28  20  28  28  22  26  28  26  24  26  20  28  24  24  24  24  20  24  26  20  24  28  26  24  22  
 0   0   0   0   0   0   0   0   0   0   0   0   0   0   0   0   0   0   0   0  26  33  24  34  17  14  31  24  34  33  24  14  33  24  28  34  25  24  22  26  35  17  26  15  24  34  34  15  17  35  22  14  26  22  24  15  24  22  15  24  
 0   0   0   0   0   0   0   0   0   0   0   0   0   0   0   0   0   0   0   0   0  43  23  24  21  24  46  23  24  33  24  24  14  24  17  24  15  28  17  25  24  32  37   6  22  24  28  14  13  31  18  24  19  24  20  15  15  34  24  27  
 0   0   0   0   0   0   0   0   0   0   0   0   0   0   0   0   0   0   0   0   0   0  25  28  31  24  11  14  18  15  24  24  24  15  31  18  33  15  28  23  20  27  23  33  16  17  33  44  42  15  32  29  19  35  33  41  42  21  22  23  
 0   0   0   0   0   0   0   0   0   0   0   0   0   0   0   0   0   0   0   0   0   0   0  24  23  24  33  23  24  24  24  15  23  24  23  24  24  24  24  25  15  25  33  24  15  24  15  23  24  24  25  24  25  24  24  24  24  34  24  25  
 0   0   0   0   0   0   0   0   0   0   0   0   0   0   0   0   0   0   0   0   0   0   0   0  24  34  24  20   8  24  24  34  30  24  28  14  26  24  20  24  24  24  16  24  20  26  14  18  30  24  24  38  12  24  16  24  24  24  24  24  
 0   0   0   0   0   0   0   0   0   0   0   0   0   0   0   0   0   0   0   0   0   0   0   0   0  25  46  10  28  24  24  24  32  15  19  13  26  13  17  25  20  10  31   6  26  15  33  25  31  20  20  26  23  31  33  24   9  34  35  27  
 0   0   0   0   0   0   0   0   0   0   0   0   0   0   0   0   0   0   0   0   0   0   0   0   0   0  24  24  34  24  19  14  24  24  24  34  34  24  24  24  19  29  24  19  24  29  39  24  24  29  24  19  24  24  24  24  29  24  29  24  
 0   0   0   0   0   0   0   0   0   0   0   0   0   0   0   0   0   0   0   0   0   0   0   0   0   0   0  37  20  15  24  33  24  33  30  37  33  29  33  26  39  28   4  51  27  33  20  33  24  15  33  24  28  13  19  33  37   4  24  26  
 0   0   0   0   0   0   0   0   0   0   0   0   0   0   0   0   0   0   0   0   0   0   0   0   0   0   0   0  26  24  17  21  27  19  30   9  26  15  23  21  17  21  24  15  24  17  33  25  30  14  27  28  21  33  33  28  18  25  24  25  
 0   0   0   0   0   0   0   0   0   0   0   0   0   0   0   0   0   0   0   0   0   0   0   0   0   0   0   0   0  24  15  43  39  24  15  16   3  33  24  15  28  28  24  24  20  12  14  20  30  24  26  34  24  15  24  24  30  24  24  24  
 0   0   0   0   0   0   0   0   0   0   0   0   0   0   0   0   0   0   0   0   0   0   0   0   0   0   0   0   0   0  24  24  24  24  24  24  33  24  24  24  24  24  24  33  24  24  24  33  33  15  24  24  24  24  24  33  24  24  33  24  
 0   0   0   0   0   0   0   0   0   0   0   0   0   0   0   0   0   0   0   0   0   0   0   0   0   0   0   0   0   0   0  30  37  28  18  24  15  33  27  11  16  29  24  19  24  19  29  24  21  29  24  29  24  15  24  28  25  24  29  24  
 0   0   0   0   0   0   0   0   0   0   0   0   0   0   0   0   0   0   0   0   0   0   0   0   0   0   0   0   0   0   0   0  15  24  36  34  43  15  27  33  12  24  33  24  15  34  25  24  21  24  24  14  24  33  24  24  24  33  24  24  
 0   0   0   0   0   0   0   0   0   0   0   0   0   0   0   0   0   0   0   0   0   0   0   0   0   0   0   0   0   0   0   0   0  20  32  25  33  15  23  38  24  34  24  24  24  24  24  29  18  24  25  25  25  33  24  20  29  24  24  25  
 0   0   0   0   0   0   0   0   0   0   0   0   0   0   0   0   0   0   0   0   0   0   0   0   0   0   0   0   0   0   0   0   0   0  24  15  24  15  24  28  24  24  24  15  24  15  33  24  33  24  24  24  24  33  33  20  28  24  24  24  
 0   0   0   0   0   0   0   0   0   0   0   0   0   0   0   0   0   0   0   0   0   0   0   0   0   0   0   0   0   0   0   0   0   0   0  24  13  37  27  14  25  23  26  24  28  20  28  23  25  22  29  20  23  15  20  24  22  27  26  25  
 0   0   0   0   0   0   0   0   0   0   0   0   0   0   0   0   0   0   0   0   0   0   0   0   0   0   0   0   0   0   0   0   0   0   0   0  17  17  25  24  20  20  26  15  33   3  23  29  33  21  26  31  24  33  33  24  16  25  24  24  
 0   0   0   0   0   0   0   0   0   0   0   0   0   0   0   0   0   0   0   0   0   0   0   0   0   0   0   0   0   0   0   0   0   0   0   0   0  33  28  15  24  24  24  15  23   0  14  12  15  38  24  30  36  17  32  15  33  24  13  24  
 0   0   0   0   0   0   0   0   0   0   0   0   0   0   0   0   0   0   0   0   0   0   0   0   0   0   0   0   0   0   0   0   0   0   0   0   0   0  28  33  24  24  18  15  24  15  29  22  33  22  20  26  28  42  37  24  24  24  24  24  
 0   0   0   0   0   0   0   0   0   0   0   0   0   0   0   0   0   0   0   0   0   0   0   0   0   0   0   0   0   0   0   0   0   0   0   0   0   0   0  24  27  26  33  15  22  28  20  28  29  22  17  29  26  24  24  24  12  32  33  26  
 0   0   0   0   0   0   0   0   0   0   0   0   0   0   0   0   0   0   0   0   0   0   0   0   0   0   0   0   0   0   0   0   0   0   0   0   0   0   0   0  22  23  22  24  26  24  24  25  24  24  23  24  23  17  24  28  20  25  24  21  
 0   0   0   0   0   0   0   0   0   0   0   0   0   0   0   0   0   0   0   0   0   0   0   0   0   0   0   0   0   0   0   0   0   0   0   0   0   0   0   0   0  25  31  19  21  19  20  32  21  29  24  29  24  26  24  32  25  43  29  22  
 0   0   0   0   0   0   0   0   0   0   0   0   0   0   0   0   0   0   0   0   0   0   0   0   0   0   0   0   0   0   0   0   0   0   0   0   0   0   0   0   0   0  24  29  26  29  19  25  22  17  25  19  21  24  24  24  15  23  19  25  
 0   0   0   0   0   0   0   0   0   0   0   0   0   0   0   0   0   0   0   0   0   0   0   0   0   0   0   0   0   0   0   0   0   0   0   0   0   0   0   0   0   0   0  33  35  24  29  26  24  22  33  26  28  26  28  24  33   8  15  22  
 0   0   0   0   0   0   0   0   0   0   0   0   0   0   0   0   0   0   0   0   0   0   0   0   0   0   0   0   0   0   0   0   0   0   0   0   0   0   0   0   0   0   0   0  24  10  38  15  24  38  15  29  24  33  33  15  20  33  29  24  
 0   0   0   0   0   0   0   0   0   0   0   0   0   0   0   0   0   0   0   0   0   0   0   0   0   0   0   0   0   0   0   0   0   0   0   0   0   0   0   0   0   0   0   0   0  28  15  19  22  27  26  28  18  22  24  24  33  31  24  28  
 0   0   0   0   0   0   0   0   0   0   0   0   0   0   0   0   0   0   0   0   0   0   0   0   0   0   0   0   0   0   0   0   0   0   0   0   0   0   0   0   0   0   0   0   0   0  28  26  33  29  26  35  36  33  41  24  31  24  29  24  
 0   0   0   0   0   0   0   0   0   0   0   0   0   0   0   0   0   0   0   0   0   0   0   0   0   0   0   0   0   0   0   0   0   0   0   0   0   0   0   0   0   0   0   0   0   0   0  24  15  15  24  29  32  15  19  24  15  33  19  28  
 0   0   0   0   0   0   0   0   0   0   0   0   0   0   0   0   0   0   0   0   0   0   0   0   0   0   0   0   0   0   0   0   0   0   0   0   0   0   0   0   0   0   0   0   0   0   0   0  21  40  19  22  25  24  24   7  27  17  15  25  
 0   0   0   0   0   0   0   0   0   0   0   0   0   0   0   0   0   0   0   0   0   0   0   0   0   0   0   0   0   0   0   0   0   0   0   0   0   0   0   0   0   0   0   0   0   0   0   0   0  31  26  24  22  15  15  15  24  24  15  26  
 0   0   0   0   0   0   0   0   0   0   0   0   0   0   0   0   0   0   0   0   0   0   0   0   0   0   0   0   0   0   0   0   0   0   0   0   0   0   0   0   0   0   0   0   0   0   0   0   0   0  26  21  26  24  24  33  10  24  28  30  
 0   0   0   0   0   0   0   0   0   0   0   0   0   0   0   0   0   0   0   0   0   0   0   0   0   0   0   0   0   0   0   0   0   0   0   0   0   0   0   0   0   0   0   0   0   0   0   0   0   0   0  24  25  26  24  24  15  32  31  21  
 0   0   0   0   0   0   0   0   0   0   0   0   0   0   0   0   0   0   0   0   0   0   0   0   0   0   0   0   0   0   0   0   0   0   0   0   0   0   0   0   0   0   0   0   0   0   0   0   0   0   0   0  28  24  24  24  18  25  19  24  
 0   0   0   0   0   0   0   0   0   0   0   0   0   0   0   0   0   0   0   0   0   0   0   0   0   0   0   0   0   0   0   0   0   0   0   0   0   0   0   0   0   0   0   0   0   0   0   0   0   0   0   0   0  24  12  24  28  23  24  21  
 0   0   0   0   0   0   0   0   0   0   0   0   0   0   0   0   0   0   0   0   0   0   0   0   0   0   0   0   0   0   0   0   0   0   0   0   0   0   0   0   0   0   0   0   0   0   0   0   0   0   0   0   0   0  15  24  22  22  26  26  
 0   0   0   0   0   0   0   0   0   0   0   0   0   0   0   0   0   0   0   0   0   0   0   0   0   0   0   0   0   0   0   0   0   0   0   0   0   0   0   0   0   0   0   0   0   0   0   0   0   0   0   0   0   0   0  24  24  24  24  24  
 0   0   0   0   0   0   0   0   0   0   0   0   0   0   0   0   0   0   0   0   0   0   0   0   0   0   0   0   0   0   0   0   0   0   0   0   0   0   0   0   0   0   0   0   0   0   0   0   0   0   0   0   0   0   0   0  28  16  15  24  
 0   0   0   0   0   0   0   0   0   0   0   0   0   0   0   0   0   0   0   0   0   0   0   0   0   0   0   0   0   0   0   0   0   0   0   0   0   0   0   0   0   0   0   0   0   0   0   0   0   0   0   0   0   0   0   0   0  34  30  28  
 0   0   0   0   0   0   0   0   0   0   0   0   0   0   0   0   0   0   0   0   0   0   0   0   0   0   0   0   0   0   0   0   0   0   0   0   0   0   0   0   0   0   0   0   0   0   0   0   0   0   0   0   0   0   0   0   0   0  15  25  
 0   0   0   0   0   0   0   0   0   0   0   0   0   0   0   0   0   0   0   0   0   0   0   0   0   0   0   0   0   0   0   0   0   0   0   0   0   0   0   0   0   0   0   0   0   0   0   0   0   0   0   0   0   0   0   0   0   0   0  24  
 0   0   0   0   0   0   0   0   0   0   0   0   0   0   0   0   0   0   0   0   0   0   0   0   0   0   0   0   0   0   0   0   0   0   0   0   0   0   0   0   0   0   0   0   0   0   0   0   0   0   0   0   0   0   0   0   0   0   0   0  
